tsp_instances/TSP50/instance119.tsp
NODE_COORD_SECTION
0 80 109
1 36 124
2 172 89
3 197 123
4 118 61
5 142 86
6 2 89
7 125 55
8 78 164
9 124 141
10 35 22
11 72 129
12 199 97
13 6 139
14 170 196
15 16 30
16 136 130
17 47 145
18 107 75
19 144 5
20 95 150
21 123 118
22 7 92
23 196 170
24 8 30
25 101 172
26 125 57
27 33 29
28 115 83
29 180 111
30 161 85
31 116 45
32 194 28
33 29 34
34 161 32
35 51 190
36 5 91
37 8 127
38 34 36
39 68 192
40 12 109
41 67 32
42 137 55
43 51 159
44 46 142
45 142 6
46 164 42
47 61 76
48 154 96
49 33 119
