tsp_instances/TSP50/instance119.opt.tour
TOUR_SECTION
1
12
21
10
17
22
29
19
5
27
8
32
46
20
35
33
47
43
6
49
31
3
13
30
4
24
15
26
9
40
36
44
18
45
2
50
14
38
41
23
37
7
25
16
34
39
28
11
42
48
-1